################################################################################
# brief: colliding spheres of different type in a periodic box                 #
# authors: Daniel Queteschiner                                                 #
# date: Dec. 2020                                                              #
# copyright: 2020- JKU Linz                                                    #
################################################################################

# define the attributes associated with the particles,
# 'granular' (or 'sphere') style uses diameter, mass and angular velocity
atom_style      granular

# use an array to map particle IDs to local storage index,
# do not sort atoms spatially
atom_modify     map array sort 0 0

# set simulation domain to be periodic in x y z
boundary        p p p

# save communication by turning off Newton's 3rd law of pairwise interaction,
# note: this setting only influences communication between procs, Newton's
# 3rd law is still used for contact force calculations
newton          off

# use a single value for ghost particle cutoff distance and
# enable velocity to be communicated with ghost particles
communicate     single vel yes

# set unit system to SI
units           si

# define the region used as simulation domain (min/max X, min/max Y, min/max Z)
region          domain block -0.1 0.1 -0.1 0.1 -0.1 0.1 units box

# create the simulation domain using the region above and 2 types of particles
create_box      2 domain

# specify the skin distance for neighbor list generation
neighbor        0.001 bin
neigh_modify    delay 0

# define the material properties required for granular pair styles
fix     m1 all property/global youngsModulus peratomtype 1.e7 1.e8
fix     m2 all property/global poissonsRatio peratomtype 0.45 0.45
fix     m3 all property/global coefficientRestitution peratomtypepair 2 0.5 0.4 &
                                                                        0.4 0.35
fix     m4 all property/global coefficientFriction peratomtypepair 2 0.40 0.45 &
                                                                     0.45 0.50

# use the Hertzian contact model considering tangential contact history
pair_style gran model hertz tangential history
pair_coeff * *

# set the time step
timestep        0.00001

# create 3 particle pairs for collision:
# 1) type 1 particle colliding with type 1 particle
# 2) type 1 particle colliding with type 2 particle
# 3) type 2 particle colliding with type 2 particle

# 1)
# create particles
create_atoms    1 single -0.05 0 0.05 units box
create_atoms    1 single  0.05 0 0.05 units box
# set diameter, density and initial velocity
set             atom 1 diameter 0.01 density 1000. vx  0.5
set             atom 2 diameter 0.01 density 1000. vx -0.5

# 2)
# create particles
create_atoms    1 single -0.05 0 0.0 units box
create_atoms    2 single  0.05 0 0.0 units box
# set diameter, density and initial velocity
set             atom 3 diameter 0.01 density 1000. vx  0.5
set             atom 4 diameter 0.01 density 1000. vx -0.5

# 3)
# create particles
create_atoms    2 single -0.05 0 -0.05 units box
create_atoms    2 single  0.05 0 -0.05 units box
# set diameter, density and initial velocity
set             atom 5 diameter 0.01 density 1000. vx  0.5
set             atom 6 diameter 0.01 density 1000. vx -0.5

# use constant NVE integration to update position, velocity and angular velocity
fix     integr all nve/sphere

# compute rotational kinetic energy
compute rke all erotate/sphere

# output settings, include kinetic energy,
# note how the above compute command is referenced here by 'c_' + compute id
thermo_style    custom step atoms ke c_rke

# set frequency of output
thermo          1000

# ignore particles leaving the simulation domain,
# do not normalize thermodynamic output values by the number of atoms
thermo_modify   lost ignore norm no

# set dynamic 'to' no as number of particles does not change
compute_modify  thermo_temp dynamic no

# dump particle data every 500 time steps
dump    dmp all custom/vtk 500 post/collide_types_*.vtk id type x y z vx vy vz & 
        fx fy fz omegax omegay omegaz radius

# run 50000 time steps
run     50000

